unsat
(:max-memory         18.62
 :memory             18.43
 :nlsat-arith-var    3
 :nlsat-atoms        6
 :nlsat-bool-var     1
 :nlsat-clauses      6
 :nlsat-conflicts    1
 :nlsat-propagations 5
 :nlsat-stages       1
 :num-allocs         151306
 :rlimit-count       16234
 :time               0.02
 :total-time         0.04)
